(set-option :produce-models true)
(set-option :produce-unsat-cores true)
(set-option :produce-interpolants true)
(set-option :interpolant-check-mode true)
(set-option :proof-transformation LU)
(set-logic ALL)
(set-info :source |SMT script generated on 2024-03-30T23:50:19+01:00 by Ultimate (https://ultimate.informatik.uni-freiburg.de/)|)
(set-info :smt-lib-version 2.5)
(set-info :category "industrial")
(set-info :ultimate-id standard_minInArray_ground-2.i_AllErrorsAtOnce_Iteration9)
(declare-fun |c_old(#valid)| () (Array Int Int))
(declare-fun |c_old(#valid)_primed| () (Array Int Int))
(declare-fun |c_#valid| () (Array Int Int))
(declare-fun |c_#valid_primed| () (Array Int Int))
(declare-fun |c_old(#length)| () (Array Int Int))
(declare-fun |c_old(#length)_primed| () (Array Int Int))
(declare-fun |c_#length| () (Array Int Int))
(declare-fun |c_#length_primed| () (Array Int Int))
(declare-fun |c_old(#memory_int#0)| () (Array Int (Array Int Int)))
(declare-fun |c_old(#memory_int#0)_primed| () (Array Int (Array Int Int)))
(declare-fun |c_#memory_int#0| () (Array Int (Array Int Int)))
(declare-fun |c_#memory_int#0_primed| () (Array Int (Array Int Int)))
(declare-fun |c_old(#memory_int#1)| () (Array Int (Array Int Int)))
(declare-fun |c_old(#memory_int#1)_primed| () (Array Int (Array Int Int)))
(declare-fun |c_#memory_int#1| () (Array Int (Array Int Int)))
(declare-fun |c_#memory_int#1_primed| () (Array Int (Array Int Int)))
(declare-fun |c_old(#StackHeapBarrier)| () Int)
(declare-fun |c_old(#StackHeapBarrier)_primed| () Int)
(declare-fun |c_#StackHeapBarrier| () Int)
(declare-fun |c_#StackHeapBarrier_primed| () Int)
(declare-fun |c_reach_error_#t~nondet0.base| () Int)
(declare-fun |c_reach_error_#t~nondet0.base_primed| () Int)
(declare-fun |c_reach_error_#t~nondet0.offset| () Int)
(declare-fun |c_reach_error_#t~nondet0.offset_primed| () Int)
(declare-fun |c_#Ultimate.allocInit_~size| () Int)
(declare-fun |c_#Ultimate.allocInit_~size_primed| () Int)
(declare-fun |c_#Ultimate.allocInit_ptrBase| () Int)
(declare-fun |c_#Ultimate.allocInit_ptrBase_primed| () Int)
(declare-fun |c_read~int#1_#ptr.base| () Int)
(declare-fun |c_read~int#1_#ptr.base_primed| () Int)
(declare-fun |c_read~int#1_#ptr.offset| () Int)
(declare-fun |c_read~int#1_#ptr.offset_primed| () Int)
(declare-fun |c_read~int#1_#sizeOfReadType| () Int)
(declare-fun |c_read~int#1_#sizeOfReadType_primed| () Int)
(declare-fun |c_read~int#1_#value| () Int)
(declare-fun |c_read~int#1_#value_primed| () Int)
(declare-fun |c_read~int#0_#ptr.base| () Int)
(declare-fun |c_read~int#0_#ptr.base_primed| () Int)
(declare-fun |c_read~int#0_#ptr.offset| () Int)
(declare-fun |c_read~int#0_#ptr.offset_primed| () Int)
(declare-fun |c_read~int#0_#sizeOfReadType| () Int)
(declare-fun |c_read~int#0_#sizeOfReadType_primed| () Int)
(declare-fun |c_read~int#0_#value| () Int)
(declare-fun |c_read~int#0_#value_primed| () Int)
(declare-fun |c_main_#res| () Int)
(declare-fun |c_main_#res_primed| () Int)
(declare-fun |c_main_#t~nondet1| () Int)
(declare-fun |c_main_#t~nondet1_primed| () Int)
(declare-fun |c_main_#t~post2| () Int)
(declare-fun |c_main_#t~post2_primed| () Int)
(declare-fun |c_main_#t~mem3| () Int)
(declare-fun |c_main_#t~mem3_primed| () Int)
(declare-fun |c_main_#t~mem4| () Int)
(declare-fun |c_main_#t~mem4_primed| () Int)
(declare-fun |c_main_#t~mem5| () Int)
(declare-fun |c_main_#t~mem5_primed| () Int)
(declare-fun |c_main_#t~post6| () Int)
(declare-fun |c_main_#t~post6_primed| () Int)
(declare-fun |c_main_~#a~0.base| () Int)
(declare-fun |c_main_~#a~0.base_primed| () Int)
(declare-fun |c_main_~#a~0.offset| () Int)
(declare-fun |c_main_~#a~0.offset_primed| () Int)
(declare-fun c_main_~min~0 () Int)
(declare-fun c_main_~min~0_primed () Int)
(declare-fun c_main_~i~0 () Int)
(declare-fun c_main_~i~0_primed () Int)
(declare-fun c_main_~x~0 () Int)
(declare-fun c_main_~x~0_primed () Int)
(declare-fun |c_#Ultimate.allocOnStack_~size| () Int)
(declare-fun |c_#Ultimate.allocOnStack_~size_primed| () Int)
(declare-fun |c_#Ultimate.allocOnStack_#res.base| () Int)
(declare-fun |c_#Ultimate.allocOnStack_#res.base_primed| () Int)
(declare-fun |c_#Ultimate.allocOnStack_#res.offset| () Int)
(declare-fun |c_#Ultimate.allocOnStack_#res.offset_primed| () Int)
(declare-fun |c_write~int#0_#value| () Int)
(declare-fun |c_write~int#0_#value_primed| () Int)
(declare-fun |c_write~int#0_#ptr.base| () Int)
(declare-fun |c_write~int#0_#ptr.base_primed| () Int)
(declare-fun |c_write~int#0_#ptr.offset| () Int)
(declare-fun |c_write~int#0_#ptr.offset_primed| () Int)
(declare-fun |c_write~int#0_#sizeOfWrittenType| () Int)
(declare-fun |c_write~int#0_#sizeOfWrittenType_primed| () Int)
(declare-fun |c_write~int#1_#value| () Int)
(declare-fun |c_write~int#1_#value_primed| () Int)
(declare-fun |c_write~int#1_#ptr.base| () Int)
(declare-fun |c_write~int#1_#ptr.base_primed| () Int)
(declare-fun |c_write~int#1_#ptr.offset| () Int)
(declare-fun |c_write~int#1_#ptr.offset_primed| () Int)
(declare-fun |c_write~int#1_#sizeOfWrittenType| () Int)
(declare-fun |c_write~int#1_#sizeOfWrittenType_primed| () Int)
(declare-fun |c___assert_#in~__assertion.base| () Int)
(declare-fun |c___assert_#in~__assertion.base_primed| () Int)
(declare-fun |c___assert_#in~__assertion.offset| () Int)
(declare-fun |c___assert_#in~__assertion.offset_primed| () Int)
(declare-fun |c___assert_#in~__file.base| () Int)
(declare-fun |c___assert_#in~__file.base_primed| () Int)
(declare-fun |c___assert_#in~__file.offset| () Int)
(declare-fun |c___assert_#in~__file.offset_primed| () Int)
(declare-fun |c___assert_#in~__line| () Int)
(declare-fun |c___assert_#in~__line_primed| () Int)
(declare-fun |c___VERIFIER_nondet_int_#res| () Int)
(declare-fun |c___VERIFIER_nondet_int_#res_primed| () Int)
(declare-fun |c_ULTIMATE.start_#t~ret7| () Int)
(declare-fun |c_ULTIMATE.start_#t~ret7_primed| () Int)
(declare-fun |c___VERIFIER_assert_#in~cond| () Int)
(declare-fun |c___VERIFIER_assert_#in~cond_primed| () Int)
(declare-fun c___VERIFIER_assert_~cond () Int)
(declare-fun c___VERIFIER_assert_~cond_primed () Int)
(declare-fun |c_write~init~int#1_#value| () Int)
(declare-fun |c_write~init~int#1_#value_primed| () Int)
(declare-fun |c_write~init~int#1_#ptr.base| () Int)
(declare-fun |c_write~init~int#1_#ptr.base_primed| () Int)
(declare-fun |c_write~init~int#1_#ptr.offset| () Int)
(declare-fun |c_write~init~int#1_#ptr.offset_primed| () Int)
(declare-fun |c_write~init~int#1_#sizeOfWrittenType| () Int)
(declare-fun |c_write~init~int#1_#sizeOfWrittenType_primed| () Int)
(declare-fun |c___assert_fail_#in~__assertion.base| () Int)
(declare-fun |c___assert_fail_#in~__assertion.base_primed| () Int)
(declare-fun |c___assert_fail_#in~__assertion.offset| () Int)
(declare-fun |c___assert_fail_#in~__assertion.offset_primed| () Int)
(declare-fun |c___assert_fail_#in~__file.base| () Int)
(declare-fun |c___assert_fail_#in~__file.base_primed| () Int)
(declare-fun |c___assert_fail_#in~__file.offset| () Int)
(declare-fun |c___assert_fail_#in~__file.offset_primed| () Int)
(declare-fun |c___assert_fail_#in~__line| () Int)
(declare-fun |c___assert_fail_#in~__line_primed| () Int)
(declare-fun |c___assert_fail_#in~__function.base| () Int)
(declare-fun |c___assert_fail_#in~__function.base_primed| () Int)
(declare-fun |c___assert_fail_#in~__function.offset| () Int)
(declare-fun |c___assert_fail_#in~__function.offset_primed| () Int)
(declare-fun |c___assert_perror_fail_#in~__errnum| () Int)
(declare-fun |c___assert_perror_fail_#in~__errnum_primed| () Int)
(declare-fun |c___assert_perror_fail_#in~__file.base| () Int)
(declare-fun |c___assert_perror_fail_#in~__file.base_primed| () Int)
(declare-fun |c___assert_perror_fail_#in~__file.offset| () Int)
(declare-fun |c___assert_perror_fail_#in~__file.offset_primed| () Int)
(declare-fun |c___assert_perror_fail_#in~__line| () Int)
(declare-fun |c___assert_perror_fail_#in~__line_primed| () Int)
(declare-fun |c___assert_perror_fail_#in~__function.base| () Int)
(declare-fun |c___assert_perror_fail_#in~__function.base_primed| () Int)
(declare-fun |c___assert_perror_fail_#in~__function.offset| () Int)
(declare-fun |c___assert_perror_fail_#in~__function.offset_primed| () Int)
(declare-fun |c_write~init~int#0_#value| () Int)
(declare-fun |c_write~init~int#0_#value_primed| () Int)
(declare-fun |c_write~init~int#0_#ptr.base| () Int)
(declare-fun |c_write~init~int#0_#ptr.base_primed| () Int)
(declare-fun |c_write~init~int#0_#ptr.offset| () Int)
(declare-fun |c_write~init~int#0_#ptr.offset_primed| () Int)
(declare-fun |c_write~init~int#0_#sizeOfWrittenType| () Int)
(declare-fun |c_write~init~int#0_#sizeOfWrittenType_primed| () Int)
(declare-fun c_ULTIMATE.dealloc_~addr.base () Int)
(declare-fun c_ULTIMATE.dealloc_~addr.base_primed () Int)
(declare-fun c_ULTIMATE.dealloc_~addr.offset () Int)
(declare-fun c_ULTIMATE.dealloc_~addr.offset_primed () Int)
(declare-fun |c_aux_v_main_#t~nondet1_3| () Int)
(declare-fun |c_aux_v_ULTIMATE.start_#t~ret7_3| () Int)
(declare-fun |c_aux_v_main_#t~nondet1_5| () Int)
(declare-fun |c_aux_v_main_#t~nondet1_7| () Int)
(declare-fun c_aux_v_ArrVal_1 () Int)
(declare-fun c_aux_v_ArrVal_2 () Int)
(declare-fun c_aux_v_ArrVal_4 () Int)
(declare-fun c_aux_v_ArrVal_3 () Int)
(declare-fun c_aux_v_ArrVal_5 () Int)
(declare-fun c_aux_v_ArrVal_6 () Int)
(declare-fun c_aux_v_ArrVal_8 () (Array Int Int))
(declare-fun |c_aux_v_main_#t~nondet1_8| () Int)
(declare-fun c_aux_v_ArrVal_7 () Int)
(declare-fun c_aux_v_ArrVal_9 () Int)
(declare-fun c_aux_v_ArrVal_10 () Int)
(declare-fun c_aux_v_ArrVal_11 () (Array Int Int))
(declare-fun |c_aux_v_main_#t~nondet1_9| () Int)
(declare-fun c_aux_v_ArrVal_12 () Int)
(declare-fun |c_aux_v_main_#t~nondet1_10| () Int)
(declare-fun c_aux_v_ArrVal_13 () Int)
(declare-fun c_aux_v_ArrVal_14 () (Array Int Int))
(declare-fun c_aux_v_ArrVal_15 () Int)
(declare-fun c_aux_v_ArrVal_16 () Int)
(declare-fun c_aux_v_ArrVal_17 () Int)
(declare-fun |c_aux_v_main_#t~nondet1_11| () Int)
(declare-fun c_aux_v_ArrVal_18 () (Array Int Int))
(declare-fun c_aux_v_ArrVal_19 () Int)
(declare-fun |c_aux_v_main_#t~nondet1_12| () Int)
(declare-fun c_aux_v_ArrVal_20 () (Array Int Int))
(declare-fun c_aux_v_ArrVal_22 () (Array Int Int))
(declare-fun |c_aux_v_main_#t~nondet1_13| () Int)
(declare-fun c_aux_v_ArrVal_21 () Int)
(declare-fun c_aux_v_ArrVal_24 () Int)
(declare-fun c_aux_v_ArrVal_23 () Int)
(declare-fun c_aux_v_ArrVal_26 () Int)
(declare-fun |c_aux_v_main_#t~nondet1_14| () Int)
(declare-fun c_aux_v_ArrVal_25 () (Array Int Int))
(declare-fun c_aux_v_ArrVal_27 () Int)
(declare-fun |c_aux_v_main_#t~nondet1_15| () Int)
(declare-fun c_aux_v_ArrVal_28 () (Array Int Int))
(declare-fun |c_aux_v_main_#t~nondet1_16| () Int)
(declare-fun c_aux_v_ArrVal_29 () (Array Int Int))
(declare-fun c_aux_v_ArrVal_30 () Int)
(declare-fun c_aux_v_ArrVal_31 () (Array Int Int))
(declare-fun c_aux_v_ArrVal_32 () Int)
(declare-fun |c_aux_v_main_#t~nondet1_17| () Int)
(declare-fun c_aux_v_ArrVal_33 () Int)
(declare-fun c_aux_v_ArrVal_34 () Int)
(declare-fun c_aux_v_ArrVal_35 () Int)
(declare-fun |c_aux_v_main_#t~nondet1_18| () Int)
(declare-fun c_aux_v_ArrVal_36 () (Array Int Int))
(declare-fun c_aux_v_ArrVal_38 () Int)
(declare-fun c_aux_v_ArrVal_37 () (Array Int Int))
(declare-fun |c_aux_v_main_#t~nondet1_19| () Int)
(declare-fun |c_aux_v_main_#t~nondet1_20| () Int)
(declare-fun c_aux_v_ArrVal_39 () (Array Int Int))
(declare-fun c_aux_v_ArrVal_40 () Int)
(declare-fun |c_aux_v_main_#t~nondet1_21| () Int)
(declare-fun c_aux_v_ArrVal_42 () (Array Int Int))
(declare-fun c_aux_v_ArrVal_41 () Int)
(declare-fun |c_aux_v_main_#t~nondet1_22| () Int)
(declare-fun c_aux_v_ArrVal_44 () (Array Int Int))
(declare-fun c_aux_v_ArrVal_43 () Int)
(declare-fun c_aux_v_ArrVal_46 () Int)
(declare-fun c_aux_v_ArrVal_45 () Int)
(declare-fun |c_aux_v_main_#t~nondet1_23| () Int)
(declare-fun c_aux_v_ArrVal_48 () Int)
(declare-fun c_aux_v_ArrVal_47 () (Array Int Int))
(declare-fun c_aux_v_ArrVal_50 () (Array Int Int))
(declare-fun |c_aux_v_main_#t~nondet1_24| () Int)
(declare-fun c_aux_v_ArrVal_49 () Int)
(declare-fun c_aux_v_ArrVal_52 () (Array Int Int))
(declare-fun |c_aux_v_main_#t~nondet1_25| () Int)
(declare-fun c_aux_v_ArrVal_51 () Int)
(declare-fun c_aux_v_ArrVal_54 () (Array Int Int))
(declare-fun |c_aux_v_main_#t~nondet1_26| () Int)
(declare-fun c_aux_v_ArrVal_53 () Int)
(declare-fun c_aux_v_ArrVal_56 () (Array Int Int))
(declare-fun |c_aux_v_main_#t~nondet1_27| () Int)
(declare-fun c_aux_v_ArrVal_55 () Int)
(declare-fun c_aux_v_ArrVal_57 () Int)
(declare-fun |c_aux_v_main_#t~nondet1_28| () Int)
(declare-fun c_aux_v_ArrVal_58 () (Array Int Int))
(echo "starting trace check")
(push 1)
(declare-fun |#memory_int#0_-1| () (Array Int (Array Int Int)))
(declare-fun |#valid_-1| () (Array Int Int))
(declare-fun |#length_-1| () (Array Int Int))
(declare-fun |#memory_int#1_-1| () (Array Int (Array Int Int)))
(declare-fun |old(#memory_int#0)_-1| () (Array Int (Array Int Int)))
(declare-fun |old(#valid)_-1| () (Array Int Int))
(declare-fun |old(#length)_-1| () (Array Int Int))
(declare-fun |old(#memory_int#1)_-1| () (Array Int (Array Int Int)))
(declare-fun |#StackHeapBarrier_-1| () Int)
(declare-fun |old(#valid)_3| () (Array Int Int))
(declare-fun |old(#length)_3| () (Array Int Int))
(declare-fun |old(#memory_int#1)_3| () (Array Int (Array Int Int)))
(declare-fun |#valid_3| () (Array Int Int))
(declare-fun |#length_3| () (Array Int Int))
(declare-fun |#memory_int#1_3| () (Array Int (Array Int Int)))
(declare-fun |#valid_4| () (Array Int Int))
(declare-fun main_~i~0_4 () Int)
(declare-fun |#length_4| () (Array Int Int))
(declare-fun main_~min~0_4 () Int)
(declare-fun |main_~#a~0.base_4| () Int)
(declare-fun |main_~#a~0.offset_4| () Int)
(declare-fun v_ArrVal_59_fresh_1 () Int)
(declare-fun v_ArrVal_60_fresh_1 () Int)
(declare-fun |main_#t~nondet1_5| () Int)
(declare-fun main_~i~0_5 () Int)
(declare-fun |main_#t~post2_5| () Int)
(declare-fun |#memory_int#1_5| () (Array Int (Array Int Int)))
(declare-fun v_ArrVal_62_fresh_1 () (Array Int Int))
(declare-fun |v_main_#t~nondet1_29_fresh_1| () Int)
(declare-fun v_ArrVal_61_fresh_1 () Int)
(declare-fun |main_#t~nondet1_6| () Int)
(declare-fun main_~i~0_6 () Int)
(declare-fun |main_#t~post2_6| () Int)
(declare-fun |#memory_int#1_6| () (Array Int (Array Int Int)))
(declare-fun |v_main_#t~nondet1_30_fresh_1| () Int)
(declare-fun v_ArrVal_64_fresh_1 () (Array Int Int))
(declare-fun v_ArrVal_63_fresh_1 () Int)
(declare-fun |main_#t~nondet1_7| () Int)
(declare-fun main_~i~0_7 () Int)
(declare-fun |main_#t~post2_7| () Int)
(declare-fun |#memory_int#1_7| () (Array Int (Array Int Int)))
(declare-fun |v_main_#t~nondet1_31_fresh_1| () Int)
(declare-fun v_ArrVal_66_fresh_1 () (Array Int Int))
(declare-fun v_ArrVal_65_fresh_1 () Int)
(declare-fun |main_#t~nondet1_8| () Int)
(declare-fun main_~i~0_8 () Int)
(declare-fun |main_#t~post2_8| () Int)
(declare-fun |#memory_int#1_8| () (Array Int (Array Int Int)))
(declare-fun |v_main_#t~nondet1_32_fresh_1| () Int)
(declare-fun v_ArrVal_68_fresh_1 () (Array Int Int))
(declare-fun v_ArrVal_67_fresh_1 () Int)
(declare-fun |main_#t~nondet1_9| () Int)
(declare-fun main_~i~0_9 () Int)
(declare-fun |main_#t~post2_9| () Int)
(declare-fun |#memory_int#1_9| () (Array Int (Array Int Int)))
(declare-fun |v_main_#t~nondet1_33_fresh_1| () Int)
(declare-fun v_ArrVal_69_fresh_1 () Int)
(declare-fun v_ArrVal_70_fresh_1 () (Array Int Int))
(declare-fun |main_#t~nondet1_10| () Int)
(declare-fun main_~i~0_10 () Int)
(declare-fun |main_#t~post2_10| () Int)
(declare-fun |#memory_int#1_10| () (Array Int (Array Int Int)))
(declare-fun v_ArrVal_72_fresh_1 () (Array Int Int))
(declare-fun |v_main_#t~nondet1_34_fresh_1| () Int)
(declare-fun v_ArrVal_71_fresh_1 () Int)
(declare-fun |main_#t~nondet1_11| () Int)
(declare-fun main_~i~0_11 () Int)
(declare-fun |main_#t~post2_11| () Int)
(declare-fun |#memory_int#1_11| () (Array Int (Array Int Int)))
(declare-fun v_ArrVal_73_fresh_1 () (Array Int Int))
(declare-fun |v_main_#t~nondet1_35_fresh_1| () Int)
(declare-fun v_ArrVal_74_fresh_1 () Int)
(declare-fun main_~i~0_12 () Int)
(declare-fun main_~i~0_13 () Int)
(declare-fun |main_#t~mem3_14| () Int)
(declare-fun |main_#t~mem3_15| () Int)
(declare-fun |main_#t~mem4_15| () Int)
(declare-fun main_~min~0_15 () Int)
(declare-fun main_~i~0_16 () Int)
(declare-fun |main_#t~mem3_17| () Int)
(declare-fun |main_#t~mem3_18| () Int)
(declare-fun |main_#t~mem4_18| () Int)
(declare-fun main_~min~0_18 () Int)
(declare-fun main_~i~0_19 () Int)
(declare-fun |main_#t~mem3_20| () Int)
(declare-fun |main_#t~mem3_21| () Int)
(declare-fun |main_#t~mem4_21| () Int)
(declare-fun main_~min~0_21 () Int)
(declare-fun main_~i~0_22 () Int)
(declare-fun |main_#t~mem3_23| () Int)
(declare-fun |main_#t~mem3_24| () Int)
(declare-fun |main_#t~mem4_24| () Int)
(declare-fun main_~min~0_24 () Int)
(declare-fun main_~i~0_25 () Int)
(declare-fun |main_#t~mem3_26| () Int)
(declare-fun |main_#t~mem3_27| () Int)
(declare-fun |main_#t~mem4_27| () Int)
(declare-fun main_~min~0_27 () Int)
(declare-fun main_~i~0_28 () Int)
(declare-fun |main_#t~mem3_29| () Int)
(declare-fun |main_#t~mem3_30| () Int)
(declare-fun |main_#t~mem4_30| () Int)
(declare-fun main_~min~0_30 () Int)
(declare-fun main_~i~0_31 () Int)
(declare-fun |main_#t~mem3_32| () Int)
(declare-fun |main_#t~mem3_33| () Int)
(declare-fun |main_#t~mem4_33| () Int)
(declare-fun main_~min~0_33 () Int)
(declare-fun main_~i~0_34 () Int)
(declare-fun main_~i~0_35 () Int)
(declare-fun main_~x~0_36 () Int)
(declare-fun |main_#t~mem5_37| () Int)
(declare-fun |__VERIFIER_assert_#in~cond_38| () Int)
(declare-fun |main_#t~mem5_38| () Int)
(declare-fun main_~min~0_38 () Int)
(declare-fun __VERIFIER_assert_~cond_39 () Int)
(declare-fun __VERIFIER_assert_~cond_40 () Int)
(assert (! true :named ssa_precond))
(assert (! (not false) :named ssa_postcond))
(assert (! true :named ssa_0_GlobVarAssigCall))
(assert (! true :named ssa_0_LocVarAssigCall))
(assert (! true :named ssa_0_OldVarAssigCall))
(assert (! (and (= (select |#valid_-1| 1) 1) (= (select |#valid_-1| 2) 1) (< 0 |#StackHeapBarrier_-1|) (= (select |#length_-1| 2) 31) (= (select |#valid_-1| 0) 0) (= (select |#length_-1| 1) 2) (= (select (select |#memory_int#0_-1| 1) 1) 0) (= (select (select |#memory_int#0_-1| 1) 0) 48)) :named ssa_1))
(assert (! true :named ssa_2_return))
(assert (! (and (= |old(#valid)_3| |#valid_3|) (= |#length_3| |old(#length)_3|) (= |old(#memory_int#1)_3| |#memory_int#1_3|)) :named ssa_3_GlobVarAssigCall))
(assert (! true :named ssa_3_LocVarAssigCall))
(assert (! (and (= |old(#length)_3| |#length_-1|) (= |#valid_-1| |old(#valid)_3|) (= |old(#memory_int#1)_3| |#memory_int#1_-1|)) :named ssa_3_OldVarAssigCall))
(assert (! (and (not (= |main_~#a~0.base_4| 0)) (= 400000 v_ArrVal_60_fresh_1) (= main_~min~0_4 0) (< |#StackHeapBarrier_-1| |main_~#a~0.base_4|) (= |#valid_4| (store |#valid_3| |main_~#a~0.base_4| v_ArrVal_59_fresh_1)) (= (store |#length_3| |main_~#a~0.base_4| v_ArrVal_60_fresh_1) |#length_4|) (= |main_~#a~0.offset_4| 0) (= v_ArrVal_59_fresh_1 1) (= (select |#valid_3| |main_~#a~0.base_4|) 0) (= main_~i~0_4 0)) :named ssa_4))
(assert (! (and (= (store (select |#memory_int#1_3| |main_~#a~0.base_4|) (+ (* main_~i~0_4 4) |main_~#a~0.offset_4|) v_ArrVal_61_fresh_1) v_ArrVal_62_fresh_1) (= main_~i~0_5 (+ main_~i~0_4 1)) (<= 0 (+ |v_main_#t~nondet1_29_fresh_1| 2147483648)) (< main_~i~0_4 100000) (= |v_main_#t~nondet1_29_fresh_1| v_ArrVal_61_fresh_1) (= |#memory_int#1_5| (store |#memory_int#1_3| |main_~#a~0.base_4| v_ArrVal_62_fresh_1)) (<= |v_main_#t~nondet1_29_fresh_1| 2147483647)) :named ssa_5))
(assert (! (and (= main_~i~0_6 (+ main_~i~0_5 1)) (= (store (select |#memory_int#1_5| |main_~#a~0.base_4|) (+ (* main_~i~0_5 4) |main_~#a~0.offset_4|) v_ArrVal_63_fresh_1) v_ArrVal_64_fresh_1) (<= 0 (+ |v_main_#t~nondet1_30_fresh_1| 2147483648)) (< main_~i~0_5 100000) (= |v_main_#t~nondet1_30_fresh_1| v_ArrVal_63_fresh_1) (<= |v_main_#t~nondet1_30_fresh_1| 2147483647) (= (store |#memory_int#1_5| |main_~#a~0.base_4| v_ArrVal_64_fresh_1) |#memory_int#1_6|)) :named ssa_6))
(assert (! (and (= (store |#memory_int#1_6| |main_~#a~0.base_4| v_ArrVal_66_fresh_1) |#memory_int#1_7|) (= main_~i~0_7 (+ main_~i~0_6 1)) (<= 0 (+ |v_main_#t~nondet1_31_fresh_1| 2147483648)) (<= |v_main_#t~nondet1_31_fresh_1| 2147483647) (< main_~i~0_6 100000) (= |v_main_#t~nondet1_31_fresh_1| v_ArrVal_65_fresh_1) (= (store (select |#memory_int#1_6| |main_~#a~0.base_4|) (+ (* main_~i~0_6 4) |main_~#a~0.offset_4|) v_ArrVal_65_fresh_1) v_ArrVal_66_fresh_1)) :named ssa_7))
(assert (! (and (= |v_main_#t~nondet1_32_fresh_1| v_ArrVal_67_fresh_1) (= main_~i~0_8 (+ main_~i~0_7 1)) (<= 0 (+ |v_main_#t~nondet1_32_fresh_1| 2147483648)) (< main_~i~0_7 100000) (<= |v_main_#t~nondet1_32_fresh_1| 2147483647) (= v_ArrVal_68_fresh_1 (store (select |#memory_int#1_7| |main_~#a~0.base_4|) (+ (* main_~i~0_7 4) |main_~#a~0.offset_4|) v_ArrVal_67_fresh_1)) (= |#memory_int#1_8| (store |#memory_int#1_7| |main_~#a~0.base_4| v_ArrVal_68_fresh_1))) :named ssa_8))
(assert (! (and (= |v_main_#t~nondet1_33_fresh_1| v_ArrVal_69_fresh_1) (= main_~i~0_9 (+ main_~i~0_8 1)) (= (store |#memory_int#1_8| |main_~#a~0.base_4| v_ArrVal_70_fresh_1) |#memory_int#1_9|) (< main_~i~0_8 100000) (= (store (select |#memory_int#1_8| |main_~#a~0.base_4|) (+ (* main_~i~0_8 4) |main_~#a~0.offset_4|) v_ArrVal_69_fresh_1) v_ArrVal_70_fresh_1) (<= |v_main_#t~nondet1_33_fresh_1| 2147483647) (<= 0 (+ |v_main_#t~nondet1_33_fresh_1| 2147483648))) :named ssa_9))
(assert (! (and (= (store |#memory_int#1_9| |main_~#a~0.base_4| v_ArrVal_72_fresh_1) |#memory_int#1_10|) (<= |v_main_#t~nondet1_34_fresh_1| 2147483647) (= main_~i~0_10 (+ main_~i~0_9 1)) (= v_ArrVal_72_fresh_1 (store (select |#memory_int#1_9| |main_~#a~0.base_4|) (+ (* main_~i~0_9 4) |main_~#a~0.offset_4|) v_ArrVal_71_fresh_1)) (< main_~i~0_9 100000) (= |v_main_#t~nondet1_34_fresh_1| v_ArrVal_71_fresh_1) (<= 0 (+ |v_main_#t~nondet1_34_fresh_1| 2147483648))) :named ssa_10))
(assert (! (and (= (store (select |#memory_int#1_10| |main_~#a~0.base_4|) (+ (* main_~i~0_10 4) |main_~#a~0.offset_4|) |v_main_#t~nondet1_35_fresh_1|) v_ArrVal_73_fresh_1) (<= 0 (+ |v_main_#t~nondet1_35_fresh_1| 2147483648)) (= main_~i~0_11 (+ main_~i~0_10 1)) (<= |v_main_#t~nondet1_35_fresh_1| 2147483647) (< main_~i~0_10 100000) (= (store |#memory_int#1_10| |main_~#a~0.base_4| v_ArrVal_73_fresh_1) |#memory_int#1_11|) (= |v_main_#t~nondet1_35_fresh_1| v_ArrVal_74_fresh_1)) :named ssa_11))
(assert (! (<= 100000 main_~i~0_11) :named ssa_12))
(assert (! (= main_~i~0_13 0) :named ssa_13))
(assert (! (and (= |main_#t~mem3_14| (select (select |#memory_int#1_11| |main_~#a~0.base_4|) (+ (* main_~i~0_13 4) |main_~#a~0.offset_4|))) (< main_~i~0_13 100000)) :named ssa_14))
(assert (! (and (< |main_#t~mem3_14| main_~min~0_4) (= (select (select |#memory_int#1_11| |main_~#a~0.base_4|) (+ (* main_~i~0_13 4) |main_~#a~0.offset_4|)) main_~min~0_15)) :named ssa_15))
(assert (! (= main_~i~0_16 (+ main_~i~0_13 1)) :named ssa_16))
(assert (! (and (= |main_#t~mem3_17| (select (select |#memory_int#1_11| |main_~#a~0.base_4|) (+ (* main_~i~0_16 4) |main_~#a~0.offset_4|))) (< main_~i~0_16 100000)) :named ssa_17))
(assert (! (and (< |main_#t~mem3_17| main_~min~0_15) (= (select (select |#memory_int#1_11| |main_~#a~0.base_4|) (+ (* main_~i~0_16 4) |main_~#a~0.offset_4|)) main_~min~0_18)) :named ssa_18))
(assert (! (= main_~i~0_19 (+ main_~i~0_16 1)) :named ssa_19))
(assert (! (and (= |main_#t~mem3_20| (select (select |#memory_int#1_11| |main_~#a~0.base_4|) (+ (* main_~i~0_19 4) |main_~#a~0.offset_4|))) (< main_~i~0_19 100000)) :named ssa_20))
(assert (! (and (< |main_#t~mem3_20| main_~min~0_18) (= (select (select |#memory_int#1_11| |main_~#a~0.base_4|) (+ (* main_~i~0_19 4) |main_~#a~0.offset_4|)) main_~min~0_21)) :named ssa_21))
(assert (! (= main_~i~0_22 (+ main_~i~0_19 1)) :named ssa_22))
(assert (! (and (= |main_#t~mem3_23| (select (select |#memory_int#1_11| |main_~#a~0.base_4|) (+ (* main_~i~0_22 4) |main_~#a~0.offset_4|))) (< main_~i~0_22 100000)) :named ssa_23))
(assert (! (and (< |main_#t~mem3_23| main_~min~0_21) (= (select (select |#memory_int#1_11| |main_~#a~0.base_4|) (+ (* main_~i~0_22 4) |main_~#a~0.offset_4|)) main_~min~0_24)) :named ssa_24))
(assert (! (= main_~i~0_25 (+ main_~i~0_22 1)) :named ssa_25))
(assert (! (and (= |main_#t~mem3_26| (select (select |#memory_int#1_11| |main_~#a~0.base_4|) (+ (* main_~i~0_25 4) |main_~#a~0.offset_4|))) (< main_~i~0_25 100000)) :named ssa_26))
(assert (! (and (< |main_#t~mem3_26| main_~min~0_24) (= (select (select |#memory_int#1_11| |main_~#a~0.base_4|) (+ (* main_~i~0_25 4) |main_~#a~0.offset_4|)) main_~min~0_27)) :named ssa_27))
(assert (! (= main_~i~0_28 (+ main_~i~0_25 1)) :named ssa_28))
(assert (! (and (= |main_#t~mem3_29| (select (select |#memory_int#1_11| |main_~#a~0.base_4|) (+ (* main_~i~0_28 4) |main_~#a~0.offset_4|))) (< main_~i~0_28 100000)) :named ssa_29))
(assert (! (and (< |main_#t~mem3_29| main_~min~0_27) (= (select (select |#memory_int#1_11| |main_~#a~0.base_4|) (+ (* main_~i~0_28 4) |main_~#a~0.offset_4|)) main_~min~0_30)) :named ssa_30))
(assert (! (= main_~i~0_31 (+ main_~i~0_28 1)) :named ssa_31))
(assert (! (and (= |main_#t~mem3_32| (select (select |#memory_int#1_11| |main_~#a~0.base_4|) (+ (* main_~i~0_31 4) |main_~#a~0.offset_4|))) (< main_~i~0_31 100000)) :named ssa_32))
(assert (! (and (< |main_#t~mem3_32| main_~min~0_30) (= (select (select |#memory_int#1_11| |main_~#a~0.base_4|) (+ (* main_~i~0_31 4) |main_~#a~0.offset_4|)) main_~min~0_33)) :named ssa_33))
(assert (! (= main_~i~0_34 (+ main_~i~0_31 1)) :named ssa_34))
(assert (! (<= 100000 main_~i~0_34) :named ssa_35))
(assert (! (= main_~x~0_36 0) :named ssa_36))
(assert (! (and (< main_~x~0_36 100000) (= |main_#t~mem5_37| (select (select |#memory_int#1_11| |main_~#a~0.base_4|) (+ (* main_~x~0_36 4) |main_~#a~0.offset_4|)))) :named ssa_37))
(assert (! true :named ssa_38_GlobVarAssigCall))
(assert (! (= |__VERIFIER_assert_#in~cond_38| (ite (<= main_~min~0_33 |main_#t~mem5_37|) 1 0)) :named ssa_38_LocVarAssigCall))
(assert (! true :named ssa_38_OldVarAssigCall))
(assert (! (= __VERIFIER_assert_~cond_39 |__VERIFIER_assert_#in~cond_38|) :named ssa_39))
(assert (! (= __VERIFIER_assert_~cond_39 0) :named ssa_40))
(assert (! true :named ssa_41))
(check-sat)
(get-interpolants (and ssa_0_LocVarAssigCall ssa_precond ssa_0_GlobVarAssigCall ssa_0_OldVarAssigCall ssa_2_return ssa_1) (and ssa_3_OldVarAssigCall ssa_3_LocVarAssigCall ssa_3_GlobVarAssigCall) ssa_4 ssa_5 ssa_6 ssa_7 ssa_8 ssa_9 ssa_10 ssa_11 ssa_12 ssa_13 ssa_14 ssa_15 ssa_16 ssa_17 ssa_18 ssa_19 ssa_20 ssa_21 ssa_22 ssa_23 ssa_24 ssa_25 ssa_26 ssa_27 ssa_28 ssa_29 ssa_30 ssa_31 ssa_32 ssa_33 ssa_34 ssa_35 ssa_36 ssa_37 (and ssa_38_OldVarAssigCall ssa_38_LocVarAssigCall ssa_38_GlobVarAssigCall) ssa_39 ssa_40 (and ssa_postcond ssa_41))
(echo "finished trace check")
(pop 1)
(echo "starting trace check")
(push 1)
(declare-fun |#memory_int#0_-2| () (Array Int (Array Int Int)))
(declare-fun |#valid_-2| () (Array Int Int))
(declare-fun |#length_-2| () (Array Int Int))
(declare-fun |#memory_int#1_-2| () (Array Int (Array Int Int)))
(declare-fun |old(#memory_int#0)_-2| () (Array Int (Array Int Int)))
(declare-fun |old(#valid)_-2| () (Array Int Int))
(declare-fun |old(#length)_-2| () (Array Int Int))
(declare-fun |old(#memory_int#1)_-2| () (Array Int (Array Int Int)))
(declare-fun |#StackHeapBarrier_-1| () Int)
(assert (! true :named ssa_precond))
(assert (! (not true) :named ssa_postcond))
(assert (! (and (= (select |#valid_-2| 1) 1) (= (select |#valid_-2| 2) 1) (< 0 |#StackHeapBarrier_-1|) (= (select |#length_-2| 2) 31) (= (select |#valid_-2| 0) 0) (= (select |#length_-2| 1) 2) (= (select (select |#memory_int#0_-2| 1) 1) 0) (= (select (select |#memory_int#0_-2| 1) 0) 48)) :named ssa_0))
(assert (! true :named ssa_1_return))
(assert (! true :named ssa_-2_PendingContext))
(assert (! true :named ssa_-2_LocVarAssignPendingContext))
(assert (! true :named ssa_-2_OldVarAssignPendingContext))
(check-sat)
(get-interpolants (and ssa_0 ssa_precond) (and ssa_-2_PendingContext ssa_-2_LocVarAssignPendingContext ssa_-2_OldVarAssignPendingContext ssa_1_return ssa_postcond))
(echo "finished trace check")
(pop 1)
(exit)
